p cnf 962 2469
51 -2 -1 0
-51 2 0
-51 1 0
52 -51 -3 0
-52 51 0
-52 3 0
53 -695 -696 0
-53 695 0
-53 696 0
54 -53 -6 0
-54 53 0
-54 6 0
55 -697 -698 0
-55 697 0
-55 698 0
56 -699 -700 0
-56 699 0
-56 700 0
57 -56 -9 0
-57 56 0
-57 9 0
58 -701 -55 0
-58 701 0
-58 55 0
59 -11 -702 0
-59 11 0
-59 702 0
60 -59 -12 0
-60 59 0
-60 12 0
61 -703 -58 0
-61 703 0
-61 58 0
62 -14 -704 0
-62 14 0
-62 704 0
63 -62 -15 0
-63 62 0
-63 15 0
64 -705 -61 0
-64 705 0
-64 61 0
65 -16 -700 0
-65 16 0
-65 700 0
66 -65 -706 0
-66 65 0
-66 706 0
67 -707 -64 0
-67 707 0
-67 64 0
68 -18 -702 0
-68 18 0
-68 702 0
69 -68 -708 0
-69 68 0
-69 708 0
70 -709 -67 0
-70 709 0
-70 67 0
71 -710 -4 0
-71 710 0
-71 4 0
72 -71 -20 0
-72 71 0
-72 20 0
73 -711 -70 0
-73 711 0
-73 70 0
74 -21 -7 0
-74 21 0
-74 7 0
75 -74 -708 0
-75 74 0
-75 708 0
76 -712 -73 0
-76 712 0
-76 73 0
77 -713 -22 0
-77 713 0
-77 22 0
78 -77 -714 0
-78 77 0
-78 714 0
79 -715 -76 0
-79 715 0
-79 76 0
80 -716 -20 0
-80 716 0
-80 20 0
81 -80 -717 0
-81 80 0
-81 717 0
82 -718 -79 0
-82 718 0
-82 79 0
83 -719 -8 0
-83 719 0
-83 8 0
84 -83 -720 0
-84 83 0
-84 720 0
85 -721 -82 0
-85 721 0
-85 82 0
86 -8 -695 0
-86 8 0
-86 695 0
87 -86 -20 0
-87 86 0
-87 20 0
88 -722 -85 0
-88 722 0
-88 85 0
89 -29 -723 0
-89 29 0
-89 723 0
90 -89 -724 0
-90 89 0
-90 724 0
91 -725 -88 0
-91 725 0
-91 88 0
92 -726 -31 0
-92 726 0
-92 31 0
93 -92 -20 0
-93 92 0
-93 20 0
94 -727 -91 0
-94 727 0
-94 91 0
95 -728 -23 0
-95 728 0
-95 23 0
96 -95 -714 0
-96 95 0
-96 714 0
97 -729 -94 0
-97 729 0
-97 94 0
98 -730 -731 0
-98 730 0
-98 731 0
99 -98 -732 0
-99 98 0
-99 732 0
100 -733 -97 0
-100 733 0
-100 97 0
101 -34 -16 0
-101 34 0
-101 16 0
102 -101 -25 0
-102 101 0
-102 25 0
103 -734 -100 0
-103 734 0
-103 100 0
104 -19 -735 0
-104 19 0
-104 735 0
105 -104 -736 0
-105 104 0
-105 736 0
106 -737 -103 0
-106 737 0
-106 103 0
107 -720 -738 0
-107 720 0
-107 738 0
108 -107 -30 0
-108 107 0
-108 30 0
109 -739 -106 0
-109 739 0
-109 106 0
110 -702 -6 0
-110 702 0
-110 6 0
111 -110 -740 0
-111 110 0
-111 740 0
112 -741 -109 0
-112 741 0
-112 109 0
113 -742 -743 0
-113 742 0
-113 743 0
114 -113 -30 0
-114 113 0
-114 30 0
115 -744 -112 0
-115 744 0
-115 112 0
116 -745 -699 0
-116 745 0
-116 699 0
117 -116 -735 0
-117 116 0
-117 735 0
118 -746 -115 0
-118 746 0
-118 115 0
119 -38 -37 0
-119 38 0
-119 37 0
120 -119 -747 0
-120 119 0
-120 747 0
121 -748 -118 0
-121 748 0
-121 118 0
122 -22 -700 0
-122 22 0
-122 700 0
123 -122 -25 0
-123 122 0
-123 25 0
124 -749 -121 0
-124 749 0
-124 121 0
125 -750 -6 0
-125 750 0
-125 6 0
126 -125 -732 0
-126 125 0
-126 732 0
127 -751 -124 0
-127 751 0
-127 124 0
128 -34 -752 0
-128 34 0
-128 752 0
129 -128 -740 0
-129 128 0
-129 740 0
130 -753 -127 0
-130 753 0
-130 127 0
131 -34 -738 0
-131 34 0
-131 738 0
132 -131 -747 0
-132 131 0
-132 747 0
133 -754 -130 0
-133 754 0
-133 130 0
134 -13 -6 0
-134 13 0
-134 6 0
135 -134 -12 0
-135 134 0
-135 12 0
136 -755 -133 0
-136 755 0
-136 133 0
137 -743 -756 0
-137 743 0
-137 756 0
138 -137 -25 0
-138 137 0
-138 25 0
139 -757 -136 0
-139 757 0
-139 136 0
140 -758 -19 0
-140 758 0
-140 19 0
141 -140 -27 0
-141 140 0
-141 27 0
142 -759 -139 0
-142 759 0
-142 139 0
143 -42 -10 0
-143 42 0
-143 10 0
144 -143 -760 0
-144 143 0
-144 760 0
145 -761 -142 0
-145 761 0
-145 142 0
146 -762 -7 0
-146 762 0
-146 7 0
147 -146 -747 0
-147 146 0
-147 747 0
148 -763 -145 0
-148 763 0
-148 145 0
149 -43 -22 0
-149 43 0
-149 22 0
150 -149 -17 0
-150 149 0
-150 17 0
151 -764 -148 0
-151 764 0
-151 148 0
152 -51 -765 0
-152 51 0
-152 765 0
153 -766 -151 0
-153 766 0
-153 151 0
154 -767 -34 0
-154 767 0
-154 34 0
155 -154 -735 0
-155 154 0
-155 735 0
156 -768 -153 0
-156 768 0
-156 153 0
157 -41 -13 0
-157 41 0
-157 13 0
158 -157 -8 0
-158 157 0
-158 8 0
159 -769 -156 0
-159 769 0
-159 156 0
160 -30 -1 0
-160 30 0
-160 1 0
161 -160 -35 0
-161 160 0
-161 35 0
162 -770 -159 0
-162 770 0
-162 159 0
163 -771 -730 0
-163 771 0
-163 730 0
164 -163 -772 0
-164 163 0
-164 772 0
165 -773 -162 0
-165 773 0
-165 162 0
166 -774 -44 0
-166 774 0
-166 44 0
167 -166 -30 0
-167 166 0
-167 30 0
168 -775 -165 0
-168 775 0
-168 165 0
169 -14 -756 0
-169 14 0
-169 756 0
170 -169 -776 0
-170 169 0
-170 776 0
171 -777 -168 0
-171 777 0
-171 168 0
172 -46 -731 0
-172 46 0
-172 731 0
173 -172 -47 0
-173 172 0
-173 47 0
174 -778 -171 0
-174 778 0
-174 171 0
175 -699 -1 0
-175 699 0
-175 1 0
176 -175 -25 0
-176 175 0
-176 25 0
177 -779 -174 0
-177 779 0
-177 174 0
178 -48 -34 0
-178 48 0
-178 34 0
179 -178 -716 0
-179 178 0
-179 716 0
180 -780 -177 0
-180 780 0
-180 177 0
181 -44 -10 0
-181 44 0
-181 10 0
182 -181 -781 0
-182 181 0
-182 781 0
183 -782 -180 0
-183 782 0
-183 180 0
184 -713 -756 0
-184 713 0
-184 756 0
185 -184 -16 0
-185 184 0
-185 16 0
186 -783 -183 0
-186 783 0
-186 183 0
187 -717 -740 0
-187 717 0
-187 740 0
188 -187 -39 0
-188 187 0
-188 39 0
189 -784 -186 0
-189 784 0
-189 186 0
190 -23 -695 0
-190 23 0
-190 695 0
191 -190 -31 0
-191 190 0
-191 31 0
192 -785 -189 0
-192 785 0
-192 189 0
193 -786 -5 0
-193 786 0
-193 5 0
194 -193 -714 0
-194 193 0
-194 714 0
195 -787 -192 0
-195 787 0
-195 192 0
196 -728 -723 0
-196 728 0
-196 723 0
197 -196 -774 0
-197 196 0
-197 774 0
198 -788 -195 0
-198 788 0
-198 195 0
199 -22 -710 0
-199 22 0
-199 710 0
200 -199 -752 0
-200 199 0
-200 752 0
201 -789 -198 0
-201 789 0
-201 198 0
202 -750 -36 0
-202 750 0
-202 36 0
203 -202 -8 0
-203 202 0
-203 8 0
204 -790 -201 0
-204 790 0
-204 201 0
205 -26 -6 0
-205 26 0
-205 6 0
206 -205 -740 0
-206 205 0
-206 740 0
207 -791 -204 0
-207 791 0
-207 204 0
208 -50 -14 0
-208 50 0
-208 14 0
209 -208 -792 0
-209 208 0
-209 792 0
210 -793 -207 0
-210 793 0
-210 207 0
211 -50 -713 0
-211 50 0
-211 713 0
212 -211 -48 0
-212 211 0
-212 48 0
213 -794 -210 0
-213 794 0
-213 210 0
214 -795 -742 0
-214 795 0
-214 742 0
215 -214 -732 0
-215 214 0
-215 732 0
216 -796 -213 0
-216 796 0
-216 213 0
217 -34 -781 0
-217 34 0
-217 781 0
218 -217 -717 0
-218 217 0
-218 717 0
219 -797 -216 0
-219 797 0
-219 216 0
220 -40 -743 0
-220 40 0
-220 743 0
221 -220 -762 0
-221 220 0
-221 762 0
222 -798 -219 0
-222 798 0
-222 219 0
223 -720 -700 0
-223 720 0
-223 700 0
224 -223 -32 0
-224 223 0
-224 32 0
225 -799 -222 0
-225 799 0
-225 222 0
226 -11 -699 0
-226 11 0
-226 699 0
227 -226 -726 0
-227 226 0
-227 726 0
228 -800 -225 0
-228 800 0
-228 225 0
229 -10 -696 0
-229 10 0
-229 696 0
230 -229 -32 0
-230 229 0
-230 32 0
231 -801 -228 0
-231 801 0
-231 228 0
232 -46 -781 0
-232 46 0
-232 781 0
233 -232 -767 0
-233 232 0
-233 767 0
234 -802 -231 0
-234 802 0
-234 231 0
235 -745 -7 0
-235 745 0
-235 7 0
236 -235 -8 0
-236 235 0
-236 8 0
237 -803 -234 0
-237 803 0
-237 234 0
238 -29 -696 0
-238 29 0
-238 696 0
239 -238 -18 0
-239 238 0
-239 18 0
240 -804 -237 0
-240 804 0
-240 237 0
241 -710 -10 0
-241 710 0
-241 10 0
242 -241 -33 0
-242 241 0
-242 33 0
243 -805 -240 0
-243 805 0
-243 240 0
244 -713 -19 0
-244 713 0
-244 19 0
245 -244 -46 0
-245 244 0
-245 46 0
246 -806 -243 0
-246 806 0
-246 243 0
247 -46 -702 0
-247 46 0
-247 702 0
248 -247 -38 0
-248 247 0
-248 38 0
249 -807 -246 0
-249 807 0
-249 246 0
250 -750 -720 0
-250 750 0
-250 720 0
251 -250 -724 0
-251 250 0
-251 724 0
252 -808 -249 0
-252 808 0
-252 249 0
253 -47 -40 0
-253 47 0
-253 40 0
254 -253 -3 0
-254 253 0
-254 3 0
255 -809 -252 0
-255 809 0
-255 252 0
256 -36 -22 0
-256 36 0
-256 22 0
257 -256 -735 0
-257 256 0
-257 735 0
258 -810 -255 0
-258 810 0
-258 255 0
259 -43 -34 0
-259 43 0
-259 34 0
260 -259 -724 0
-260 259 0
-260 724 0
261 -811 -258 0
-261 811 0
-261 258 0
262 -743 -4 0
-262 743 0
-262 4 0
263 -262 -738 0
-263 262 0
-263 738 0
264 -812 -261 0
-264 812 0
-264 261 0
265 -23 -7 0
-265 23 0
-265 7 0
266 -265 -48 0
-266 265 0
-266 48 0
267 -813 -264 0
-267 813 0
-267 264 0
268 -719 -714 0
-268 719 0
-268 714 0
269 -268 -30 0
-269 268 0
-269 30 0
270 -814 -267 0
-270 814 0
-270 267 0
271 -38 -16 0
-271 38 0
-271 16 0
272 -271 -708 0
-272 271 0
-272 708 0
273 -815 -270 0
-273 815 0
-273 270 0
274 -92 -740 0
-274 92 0
-274 740 0
275 -816 -273 0
-275 816 0
-275 273 0
276 -758 -817 0
-276 758 0
-276 817 0
277 -276 -34 0
-277 276 0
-277 34 0
278 -818 -275 0
-278 818 0
-278 275 0
279 -742 -27 0
-279 742 0
-279 27 0
280 -279 -25 0
-280 279 0
-280 25 0
281 -819 -278 0
-281 819 0
-281 278 0
282 -720 -699 0
-282 720 0
-282 699 0
283 -282 -736 0
-283 282 0
-283 736 0
284 -820 -281 0
-284 820 0
-284 281 0
285 -43 -4 0
-285 43 0
-285 4 0
286 -285 -39 0
-286 285 0
-286 39 0
287 -821 -284 0
-287 821 0
-287 284 0
288 -46 -7 0
-288 46 0
-288 7 0
289 -288 -724 0
-289 288 0
-289 724 0
290 -822 -287 0
-290 822 0
-290 287 0
291 -31 -776 0
-291 31 0
-291 776 0
292 -291 -17 0
-292 291 0
-292 17 0
293 -823 -290 0
-293 823 0
-293 290 0
294 -774 -735 0
-294 774 0
-294 735 0
295 -294 -20 0
-295 294 0
-295 20 0
296 -824 -293 0
-296 824 0
-296 293 0
297 -26 -695 0
-297 26 0
-297 695 0
298 -297 -14 0
-298 297 0
-298 14 0
299 -825 -296 0
-299 825 0
-299 296 0
300 -48 -760 0
-300 48 0
-300 760 0
301 -300 -25 0
-301 300 0
-301 25 0
302 -826 -299 0
-302 826 0
-302 299 0
303 -786 -752 0
-303 786 0
-303 752 0
304 -303 -30 0
-304 303 0
-304 30 0
305 -827 -302 0
-305 827 0
-305 302 0
306 -42 -19 0
-306 42 0
-306 19 0
307 -306 -731 0
-307 306 0
-307 731 0
308 -828 -305 0
-308 828 0
-308 305 0
309 -45 -40 0
-309 45 0
-309 40 0
310 -309 -776 0
-310 309 0
-310 776 0
311 -829 -308 0
-311 829 0
-311 308 0
312 -43 -735 0
-312 43 0
-312 735 0
313 -312 -736 0
-313 312 0
-313 736 0
314 -830 -311 0
-314 830 0
-314 311 0
315 -50 -772 0
-315 50 0
-315 772 0
316 -315 -16 0
-316 315 0
-316 16 0
317 -831 -314 0
-317 831 0
-317 314 0
318 -774 -728 0
-318 774 0
-318 728 0
319 -318 -747 0
-319 318 0
-319 747 0
320 -832 -317 0
-320 832 0
-320 317 0
321 -40 -700 0
-321 40 0
-321 700 0
322 -321 -833 0
-322 321 0
-322 833 0
323 -834 -320 0
-323 834 0
-323 320 0
324 -40 -16 0
-324 40 0
-324 16 0
325 -324 -30 0
-325 324 0
-325 30 0
326 -835 -323 0
-326 835 0
-326 323 0
327 -817 -11 0
-327 817 0
-327 11 0
328 -327 -699 0
-328 327 0
-328 699 0
329 -836 -326 0
-329 836 0
-329 326 0
330 -23 -738 0
-330 23 0
-330 738 0
331 -330 -32 0
-331 330 0
-331 32 0
332 -837 -329 0
-332 837 0
-332 329 0
333 -40 -37 0
-333 40 0
-333 37 0
334 -333 -699 0
-334 333 0
-334 699 0
335 -838 -332 0
-335 838 0
-335 332 0
336 -36 -743 0
-336 36 0
-336 743 0
337 -336 -760 0
-337 336 0
-337 760 0
338 -839 -335 0
-338 839 0
-338 335 0
339 -14 -13 0
-339 14 0
-339 13 0
340 -339 -745 0
-340 339 0
-340 745 0
341 -840 -338 0
-341 840 0
-341 338 0
342 -48 -700 0
-342 48 0
-342 700 0
343 -342 -42 0
-343 342 0
-343 42 0
344 -841 -341 0
-344 841 0
-344 341 0
345 -48 -28 0
-345 48 0
-345 28 0
346 -345 -742 0
-346 345 0
-346 742 0
347 -842 -344 0
-347 842 0
-347 344 0
348 -33 -27 0
-348 33 0
-348 27 0
349 -348 -35 0
-349 348 0
-349 35 0
350 -843 -347 0
-350 843 0
-350 347 0
351 -742 -738 0
-351 742 0
-351 738 0
352 -351 -792 0
-352 351 0
-352 792 0
353 -844 -350 0
-353 844 0
-353 350 0
354 -46 -817 0
-354 46 0
-354 817 0
355 -354 -27 0
-355 354 0
-355 27 0
356 -845 -353 0
-356 845 0
-356 353 0
357 -758 -719 0
-357 758 0
-357 719 0
358 -357 -15 0
-358 357 0
-358 15 0
359 -846 -356 0
-359 846 0
-359 356 0
360 -40 -781 0
-360 40 0
-360 781 0
361 -360 -45 0
-361 360 0
-361 45 0
362 -847 -359 0
-362 847 0
-362 359 0
363 -786 -848 0
-363 786 0
-363 848 0
364 -363 -15 0
-364 363 0
-364 15 0
365 -849 -362 0
-365 849 0
-365 362 0
366 -702 -695 0
-366 702 0
-366 695 0
367 -366 -36 0
-367 366 0
-367 36 0
368 -850 -365 0
-368 850 0
-368 365 0
369 -702 -756 0
-369 702 0
-369 756 0
370 -369 -706 0
-370 369 0
-370 706 0
371 -851 -368 0
-371 851 0
-371 368 0
372 -27 -16 0
-372 27 0
-372 16 0
373 -372 -47 0
-373 372 0
-373 47 0
374 -852 -371 0
-374 852 0
-374 371 0
375 -795 -18 0
-375 795 0
-375 18 0
376 -375 -708 0
-376 375 0
-376 708 0
377 -853 -374 0
-377 853 0
-377 374 0
378 -18 -756 0
-378 18 0
-378 756 0
379 -378 -736 0
-379 378 0
-379 736 0
380 -854 -377 0
-380 854 0
-380 377 0
381 -730 -11 0
-381 730 0
-381 11 0
382 -381 -756 0
-382 381 0
-382 756 0
383 -855 -380 0
-383 855 0
-383 380 0
384 -140 -752 0
-384 140 0
-384 752 0
385 -856 -383 0
-385 856 0
-385 383 0
386 -44 -13 0
-386 44 0
-386 13 0
387 -386 -40 0
-387 386 0
-387 40 0
388 -857 -385 0
-388 857 0
-388 385 0
389 -28 -716 0
-389 28 0
-389 716 0
390 -389 -792 0
-390 389 0
-390 792 0
391 -858 -388 0
-391 858 0
-391 388 0
392 -859 -702 0
-392 859 0
-392 702 0
393 -392 -6 0
-393 392 0
-393 6 0
394 -860 -391 0
-394 860 0
-394 391 0
395 -43 -765 0
-395 43 0
-395 765 0
396 -395 -20 0
-396 395 0
-396 20 0
397 -861 -394 0
-397 861 0
-397 394 0
398 -10 -699 0
-398 10 0
-398 699 0
399 -398 -17 0
-399 398 0
-399 17 0
400 -862 -397 0
-400 862 0
-400 397 0
401 -786 -750 0
-401 786 0
-401 750 0
402 -401 -32 0
-402 401 0
-402 32 0
403 -863 -400 0
-403 863 0
-403 400 0
404 -19 -11 0
-404 19 0
-404 11 0
405 -404 -699 0
-405 404 0
-405 699 0
406 -864 -403 0
-406 864 0
-406 403 0
407 -732 -706 0
-407 732 0
-407 706 0
408 -407 -792 0
-408 407 0
-408 792 0
409 -865 -406 0
-409 865 0
-409 406 0
410 -833 -700 0
-410 833 0
-410 700 0
411 -410 -776 0
-411 410 0
-411 776 0
412 -866 -409 0
-412 866 0
-412 409 0
413 -41 -724 0
-413 41 0
-413 724 0
414 -413 -747 0
-414 413 0
-414 747 0
415 -867 -412 0
-415 867 0
-415 412 0
416 -44 -14 0
-416 44 0
-416 14 0
417 -416 -767 0
-417 416 0
-417 767 0
418 -868 -415 0
-418 868 0
-418 415 0
419 -37 -723 0
-419 37 0
-419 723 0
420 -419 -730 0
-420 419 0
-420 730 0
421 -869 -418 0
-421 869 0
-421 418 0
422 -771 -704 0
-422 771 0
-422 704 0
423 -422 -49 0
-423 422 0
-423 49 0
424 -870 -421 0
-424 870 0
-424 421 0
425 -45 -745 0
-425 45 0
-425 745 0
426 -425 -708 0
-426 425 0
-426 708 0
427 -871 -424 0
-427 871 0
-427 424 0
428 -758 -34 0
-428 758 0
-428 34 0
429 -428 -42 0
-429 428 0
-429 42 0
430 -872 -427 0
-430 872 0
-430 427 0
431 -49 -772 0
-431 49 0
-431 772 0
432 -431 -25 0
-432 431 0
-432 25 0
433 -873 -430 0
-433 873 0
-433 430 0
434 -24 -10 0
-434 24 0
-434 10 0
435 -434 -772 0
-435 434 0
-435 772 0
436 -874 -433 0
-436 874 0
-436 433 0
437 -719 -695 0
-437 719 0
-437 695 0
438 -437 -747 0
-438 437 0
-438 747 0
439 -875 -436 0
-439 875 0
-439 436 0
440 -48 -45 0
-440 48 0
-440 45 0
441 -440 -735 0
-441 440 0
-441 735 0
442 -876 -439 0
-442 876 0
-442 439 0
443 -41 -36 0
-443 41 0
-443 36 0
444 -443 -15 0
-444 443 0
-444 15 0
445 -877 -442 0
-445 877 0
-445 442 0
446 -43 -700 0
-446 43 0
-446 700 0
447 -446 -24 0
-447 446 0
-447 24 0
448 -878 -445 0
-448 878 0
-448 445 0
449 -700 -6 0
-449 700 0
-449 6 0
450 -449 -15 0
-450 449 0
-450 15 0
451 -879 -448 0
-451 879 0
-451 448 0
452 -859 -750 0
-452 859 0
-452 750 0
453 -452 -2 0
-453 452 0
-453 2 0
454 -880 -451 0
-454 880 0
-454 451 0
455 -19 -4 0
-455 19 0
-455 4 0
456 -455 -708 0
-456 455 0
-456 708 0
457 -881 -454 0
-457 881 0
-457 454 0
458 -48 -23 0
-458 48 0
-458 23 0
459 -458 -774 0
-459 458 0
-459 774 0
460 -882 -457 0
-460 882 0
-460 457 0
461 -43 -15 0
-461 43 0
-461 15 0
462 -461 -740 0
-462 461 0
-462 740 0
463 -883 -460 0
-463 883 0
-463 460 0
464 -730 -702 0
-464 730 0
-464 702 0
465 -464 -15 0
-465 464 0
-465 15 0
466 -884 -463 0
-466 884 0
-466 463 0
467 -31 -700 0
-467 31 0
-467 700 0
468 -467 -42 0
-468 467 0
-468 42 0
469 -885 -466 0
-469 885 0
-469 466 0
470 -750 -7 0
-470 750 0
-470 7 0
471 -470 -767 0
-471 470 0
-471 767 0
472 -886 -469 0
-472 886 0
-472 469 0
473 -700 -695 0
-473 700 0
-473 695 0
474 -473 -735 0
-474 473 0
-474 735 0
475 -887 -472 0
-475 887 0
-475 472 0
476 -762 -738 0
-476 762 0
-476 738 0
477 -476 -736 0
-477 476 0
-477 736 0
478 -888 -475 0
-478 888 0
-478 475 0
479 -26 -4 0
-479 26 0
-479 4 0
480 -479 -720 0
-480 479 0
-480 720 0
481 -889 -478 0
-481 889 0
-481 478 0
482 -758 -710 0
-482 758 0
-482 710 0
483 -482 -15 0
-483 482 0
-483 15 0
484 -890 -481 0
-484 890 0
-484 481 0
485 -772 -19 0
-485 772 0
-485 19 0
486 -485 -2 0
-486 485 0
-486 2 0
487 -891 -484 0
-487 891 0
-487 484 0
488 -15 -756 0
-488 15 0
-488 756 0
489 -488 -706 0
-489 488 0
-489 706 0
490 -892 -487 0
-490 892 0
-490 487 0
491 -45 -762 0
-491 45 0
-491 762 0
492 -491 -731 0
-492 491 0
-492 731 0
493 -893 -490 0
-493 893 0
-493 490 0
494 -786 -695 0
-494 786 0
-494 695 0
495 -494 -18 0
-495 494 0
-495 18 0
496 -894 -493 0
-496 894 0
-496 493 0
497 -758 -1 0
-497 758 0
-497 1 0
498 -497 -716 0
-498 497 0
-498 716 0
499 -895 -496 0
-499 895 0
-499 496 0
500 -41 -37 0
-500 41 0
-500 37 0
501 -500 -30 0
-501 500 0
-501 30 0
502 -896 -499 0
-502 896 0
-502 499 0
503 -494 -29 0
-503 494 0
-503 29 0
504 -897 -502 0
-504 897 0
-504 502 0
505 -795 -719 0
-505 795 0
-505 719 0
506 -505 -706 0
-506 505 0
-506 706 0
507 -898 -504 0
-507 898 0
-507 504 0
508 -48 -706 0
-508 48 0
-508 706 0
509 -508 -3 0
-509 508 0
-509 3 0
510 -899 -507 0
-510 899 0
-510 507 0
511 -36 -730 0
-511 36 0
-511 730 0
512 -511 -16 0
-512 511 0
-512 16 0
513 -900 -510 0
-513 900 0
-513 510 0
514 -719 -19 0
-514 719 0
-514 19 0
515 -514 -742 0
-515 514 0
-515 742 0
516 -901 -513 0
-516 901 0
-516 513 0
517 -10 -756 0
-517 10 0
-517 756 0
518 -517 -740 0
-518 517 0
-518 740 0
519 -902 -516 0
-519 902 0
-519 516 0
520 -750 -702 0
-520 750 0
-520 702 0
521 -520 -28 0
-521 520 0
-521 28 0
522 -903 -519 0
-522 903 0
-522 519 0
523 -728 -6 0
-523 728 0
-523 6 0
524 -523 -735 0
-524 523 0
-524 735 0
525 -904 -522 0
-525 904 0
-525 522 0
526 -28 -719 0
-526 28 0
-526 719 0
527 -526 -736 0
-527 526 0
-527 736 0
528 -905 -525 0
-528 905 0
-528 525 0
529 -48 -859 0
-529 48 0
-529 859 0
530 -529 -735 0
-530 529 0
-530 735 0
531 -906 -528 0
-531 906 0
-531 528 0
532 -32 -27 0
-532 32 0
-532 27 0
533 -532 -756 0
-533 532 0
-533 756 0
534 -907 -531 0
-534 907 0
-534 531 0
535 -45 -767 0
-535 45 0
-535 767 0
536 -535 -35 0
-536 535 0
-536 35 0
537 -908 -534 0
-537 908 0
-537 534 0
538 -771 -735 0
-538 771 0
-538 735 0
539 -538 -760 0
-539 538 0
-539 760 0
540 -909 -537 0
-540 909 0
-540 537 0
541 -5 -1 0
-541 5 0
-541 1 0
542 -541 -34 0
-542 541 0
-542 34 0
543 -910 -540 0
-543 910 0
-543 540 0
544 -817 -13 0
-544 817 0
-544 13 0
545 -544 -765 0
-545 544 0
-545 765 0
546 -911 -543 0
-546 911 0
-546 543 0
547 -786 -716 0
-547 786 0
-547 716 0
548 -547 -732 0
-548 547 0
-548 732 0
549 -912 -546 0
-549 912 0
-549 546 0
550 -22 -735 0
-550 22 0
-550 735 0
551 -550 -18 0
-551 550 0
-551 18 0
552 -913 -549 0
-552 913 0
-552 549 0
553 -758 -742 0
-553 758 0
-553 742 0
554 -553 -730 0
-554 553 0
-554 730 0
555 -914 -552 0
-555 914 0
-555 552 0
556 -848 -36 0
-556 848 0
-556 36 0
557 -556 -699 0
-557 556 0
-557 699 0
558 -915 -555 0
-558 915 0
-558 555 0
559 -38 -34 0
-559 38 0
-559 34 0
560 -559 -717 0
-560 559 0
-560 717 0
561 -916 -558 0
-561 916 0
-561 558 0
562 -772 -31 0
-562 772 0
-562 31 0
563 -562 -747 0
-563 562 0
-563 747 0
564 -917 -561 0
-564 917 0
-564 561 0
565 -41 -695 0
-565 41 0
-565 695 0
566 -565 -31 0
-566 565 0
-566 31 0
567 -918 -564 0
-567 918 0
-567 564 0
568 -728 -5 0
-568 728 0
-568 5 0
569 -568 -738 0
-569 568 0
-569 738 0
570 -919 -567 0
-570 919 0
-570 567 0
571 -771 -12 0
-571 771 0
-571 12 0
572 -571 -21 0
-572 571 0
-572 21 0
573 -920 -570 0
-573 920 0
-573 570 0
574 -817 -745 0
-574 817 0
-574 745 0
575 -574 -714 0
-575 574 0
-575 714 0
576 -921 -573 0
-576 921 0
-576 573 0
577 -859 -37 0
-577 859 0
-577 37 0
578 -577 -25 0
-578 577 0
-578 25 0
579 -922 -576 0
-579 922 0
-579 576 0
580 -128 -2 0
-580 128 0
-580 2 0
581 -923 -579 0
-581 923 0
-581 579 0
582 -50 -740 0
-582 50 0
-582 740 0
583 -582 -9 0
-583 582 0
-583 9 0
584 -924 -581 0
-584 924 0
-584 581 0
585 -786 -756 0
-585 786 0
-585 756 0
586 -585 -3 0
-586 585 0
-586 3 0
587 -925 -584 0
-587 925 0
-587 584 0
588 -795 -1 0
-588 795 0
-588 1 0
589 -588 -724 0
-589 588 0
-589 724 0
590 -926 -587 0
-590 926 0
-590 587 0
591 -758 -33 0
-591 758 0
-591 33 0
592 -591 -12 0
-592 591 0
-592 12 0
593 -927 -590 0
-593 927 0
-593 590 0
594 -743 -1 0
-594 743 0
-594 1 0
595 -594 -714 0
-595 594 0
-595 714 0
596 -928 -593 0
-596 928 0
-596 593 0
597 -26 -24 0
-597 26 0
-597 24 0
598 -597 -732 0
-598 597 0
-598 732 0
599 -929 -596 0
-599 929 0
-599 596 0
600 -44 -41 0
-600 44 0
-600 41 0
601 -600 -46 0
-601 600 0
-601 46 0
602 -930 -599 0
-602 930 0
-602 599 0
603 -710 -11 0
-603 710 0
-603 11 0
604 -603 -732 0
-604 603 0
-604 732 0
605 -931 -602 0
-605 931 0
-605 602 0
606 -743 -10 0
-606 743 0
-606 10 0
607 -606 -38 0
-607 606 0
-607 38 0
608 -932 -605 0
-608 932 0
-608 605 0
609 -43 -13 0
-609 43 0
-609 13 0
610 -609 -17 0
-610 609 0
-610 17 0
611 -933 -608 0
-611 933 0
-611 608 0
612 -713 -699 0
-612 713 0
-612 699 0
613 -612 -716 0
-613 612 0
-613 716 0
614 -934 -611 0
-614 934 0
-614 611 0
615 -781 -700 0
-615 781 0
-615 700 0
616 -615 -11 0
-616 615 0
-616 11 0
617 -935 -614 0
-617 935 0
-617 614 0
618 -577 -765 0
-618 577 0
-618 765 0
619 -936 -617 0
-619 936 0
-619 617 0
620 -22 -752 0
-620 22 0
-620 752 0
621 -620 -717 0
-621 620 0
-621 717 0
622 -937 -619 0
-622 937 0
-622 619 0
623 -21 -714 0
-623 21 0
-623 714 0
624 -623 -9 0
-624 623 0
-624 9 0
625 -938 -622 0
-625 938 0
-625 622 0
626 -36 -716 0
-626 36 0
-626 716 0
627 -626 -731 0
-627 626 0
-627 731 0
628 -939 -625 0
-628 939 0
-628 625 0
629 -774 -40 0
-629 774 0
-629 40 0
630 -629 -747 0
-630 629 0
-630 747 0
631 -940 -628 0
-631 940 0
-631 628 0
632 -730 -728 0
-632 730 0
-632 728 0
633 -632 -18 0
-633 632 0
-633 18 0
634 -941 -631 0
-634 941 0
-634 631 0
635 -21 -762 0
-635 21 0
-635 762 0
636 -635 -708 0
-636 635 0
-636 708 0
637 -942 -634 0
-637 942 0
-637 634 0
638 -716 -22 0
-638 716 0
-638 22 0
639 -638 -15 0
-639 638 0
-639 15 0
640 -943 -637 0
-640 943 0
-640 637 0
641 -723 -7 0
-641 723 0
-641 7 0
642 -641 -2 0
-642 641 0
-642 2 0
643 -944 -640 0
-643 944 0
-643 640 0
644 -833 -732 0
-644 833 0
-644 732 0
645 -644 -747 0
-645 644 0
-645 747 0
646 -945 -643 0
-646 945 0
-646 643 0
647 -31 -8 0
-647 31 0
-647 8 0
648 -647 -24 0
-648 647 0
-648 24 0
649 -946 -646 0
-649 946 0
-649 646 0
650 -348 -2 0
-650 348 0
-650 2 0
651 -947 -649 0
-651 947 0
-651 649 0
652 -181 -42 0
-652 181 0
-652 42 0
653 -948 -651 0
-653 948 0
-653 651 0
654 -50 -726 0
-654 50 0
-654 726 0
655 -654 -9 0
-655 654 0
-655 9 0
656 -949 -653 0
-656 949 0
-656 653 0
657 -786 -33 0
-657 786 0
-657 33 0
658 -657 -731 0
-658 657 0
-658 731 0
659 -950 -656 0
-659 950 0
-659 656 0
660 -774 -10 0
-660 774 0
-660 10 0
661 -660 -726 0
-661 660 0
-661 726 0
662 -951 -659 0
-662 951 0
-662 659 0
663 -771 -10 0
-663 771 0
-663 10 0
664 -663 -724 0
-664 663 0
-664 724 0
665 -952 -662 0
-665 952 0
-665 662 0
666 -41 -728 0
-666 41 0
-666 728 0
667 -666 -17 0
-667 666 0
-667 17 0
668 -953 -665 0
-668 953 0
-668 665 0
669 -714 -695 0
-669 714 0
-669 695 0
670 -669 -2 0
-670 669 0
-670 2 0
671 -954 -668 0
-671 954 0
-671 668 0
672 -568 -48 0
-672 568 0
-672 48 0
673 -955 -671 0
-673 955 0
-673 671 0
674 -750 -23 0
-674 750 0
-674 23 0
675 -674 -723 0
-675 674 0
-675 723 0
676 -956 -673 0
-676 956 0
-676 673 0
677 -32 -7 0
-677 32 0
-677 7 0
678 -677 -21 0
-678 677 0
-678 21 0
679 -957 -676 0
-679 957 0
-679 676 0
680 -37 -36 0
-680 37 0
-680 36 0
681 -680 -720 0
-681 680 0
-681 720 0
682 -958 -679 0
-682 958 0
-682 679 0
683 -44 -29 0
-683 44 0
-683 29 0
684 -683 -747 0
-684 683 0
-684 747 0
685 -959 -682 0
-685 959 0
-685 682 0
686 -795 -728 0
-686 795 0
-686 728 0
687 -686 -724 0
-687 686 0
-687 724 0
688 -960 -685 0
-688 960 0
-688 685 0
689 -37 -719 0
-689 37 0
-689 719 0
690 -689 -27 0
-690 689 0
-690 27 0
691 -961 -688 0
-691 961 0
-691 688 0
692 -23 -5 0
-692 23 0
-692 5 0
693 -692 -756 0
-693 692 0
-693 756 0
694 -962 -691 0
-694 962 0
-694 691 0
-695 -5 0
695 5 0
-696 -4 0
696 4 0
-697 -54 0
697 54 0
-698 -52 0
698 52 0
-699 -8 0
699 8 0
-700 -7 0
700 7 0
-701 -57 0
701 57 0
-702 -10 0
702 10 0
-703 -60 0
703 60 0
-704 -13 0
704 13 0
-705 -63 0
705 63 0
-706 -17 0
706 17 0
-707 -66 0
707 66 0
-708 -3 0
708 3 0
-709 -69 0
709 69 0
-710 -19 0
710 19 0
-711 -72 0
711 72 0
-712 -75 0
712 75 0
-713 -23 0
713 23 0
-714 -11 0
714 11 0
-715 -78 0
715 78 0
-716 -24 0
716 24 0
-717 -25 0
717 25 0
-718 -81 0
718 81 0
-719 -26 0
719 26 0
-720 -27 0
720 27 0
-721 -84 0
721 84 0
-722 -87 0
722 87 0
-723 -28 0
723 28 0
-724 -30 0
724 30 0
-725 -90 0
725 90 0
-726 -32 0
726 32 0
-727 -93 0
727 93 0
-728 -33 0
728 33 0
-729 -96 0
729 96 0
-730 -34 0
730 34 0
-731 -18 0
731 18 0
-732 -35 0
732 35 0
-733 -99 0
733 99 0
-734 -102 0
734 102 0
-735 -12 0
735 12 0
-736 -9 0
736 9 0
-737 -105 0
737 105 0
-738 -1 0
738 1 0
-739 -108 0
739 108 0
-740 -21 0
740 21 0
-741 -111 0
741 111 0
-742 -36 0
742 36 0
-743 -22 0
743 22 0
-744 -114 0
744 114 0
-745 -31 0
745 31 0
-746 -117 0
746 117 0
-747 -39 0
747 39 0
-748 -120 0
748 120 0
-749 -123 0
749 123 0
-750 -40 0
750 40 0
-751 -126 0
751 126 0
-752 -14 0
752 14 0
-753 -129 0
753 129 0
-754 -132 0
754 132 0
-755 -135 0
755 135 0
-756 -2 0
756 2 0
-757 -138 0
757 138 0
-758 -41 0
758 41 0
-759 -141 0
759 141 0
-760 -20 0
760 20 0
-761 -144 0
761 144 0
-762 -15 0
762 15 0
-763 -147 0
763 147 0
-764 -150 0
764 150 0
-765 -6 0
765 6 0
-766 -152 0
766 152 0
-767 -38 0
767 38 0
-768 -155 0
768 155 0
-769 -158 0
769 158 0
-770 -161 0
770 161 0
-771 -44 0
771 44 0
-772 -42 0
772 42 0
-773 -164 0
773 164 0
-774 -45 0
774 45 0
-775 -167 0
775 167 0
-776 -16 0
776 16 0
-777 -170 0
777 170 0
-778 -173 0
778 173 0
-779 -176 0
779 176 0
-780 -179 0
780 179 0
-781 -29 0
781 29 0
-782 -182 0
782 182 0
-783 -185 0
783 185 0
-784 -188 0
784 188 0
-785 -191 0
785 191 0
-786 -49 0
786 49 0
-787 -194 0
787 194 0
-788 -197 0
788 197 0
-789 -200 0
789 200 0
-790 -203 0
790 203 0
-791 -206 0
791 206 0
-792 -47 0
792 47 0
-793 -209 0
793 209 0
-794 -212 0
794 212 0
-795 -50 0
795 50 0
-796 -215 0
796 215 0
-797 -218 0
797 218 0
-798 -221 0
798 221 0
-799 -224 0
799 224 0
-800 -227 0
800 227 0
-801 -230 0
801 230 0
-802 -233 0
802 233 0
-803 -236 0
803 236 0
-804 -239 0
804 239 0
-805 -242 0
805 242 0
-806 -245 0
806 245 0
-807 -248 0
807 248 0
-808 -251 0
808 251 0
-809 -254 0
809 254 0
-810 -257 0
810 257 0
-811 -260 0
811 260 0
-812 -263 0
812 263 0
-813 -266 0
813 266 0
-814 -269 0
814 269 0
-815 -272 0
815 272 0
-816 -274 0
816 274 0
-817 -37 0
817 37 0
-818 -277 0
818 277 0
-819 -280 0
819 280 0
-820 -283 0
820 283 0
-821 -286 0
821 286 0
-822 -289 0
822 289 0
-823 -292 0
823 292 0
-824 -295 0
824 295 0
-825 -298 0
825 298 0
-826 -301 0
826 301 0
-827 -304 0
827 304 0
-828 -307 0
828 307 0
-829 -310 0
829 310 0
-830 -313 0
830 313 0
-831 -316 0
831 316 0
-832 -319 0
832 319 0
-833 -48 0
833 48 0
-834 -322 0
834 322 0
-835 -325 0
835 325 0
-836 -328 0
836 328 0
-837 -331 0
837 331 0
-838 -334 0
838 334 0
-839 -337 0
839 337 0
-840 -340 0
840 340 0
-841 -343 0
841 343 0
-842 -346 0
842 346 0
-843 -349 0
843 349 0
-844 -352 0
844 352 0
-845 -355 0
845 355 0
-846 -358 0
846 358 0
-847 -361 0
847 361 0
-848 -46 0
848 46 0
-849 -364 0
849 364 0
-850 -367 0
850 367 0
-851 -370 0
851 370 0
-852 -373 0
852 373 0
-853 -376 0
853 376 0
-854 -379 0
854 379 0
-855 -382 0
855 382 0
-856 -384 0
856 384 0
-857 -387 0
857 387 0
-858 -390 0
858 390 0
-859 -43 0
859 43 0
-860 -393 0
860 393 0
-861 -396 0
861 396 0
-862 -399 0
862 399 0
-863 -402 0
863 402 0
-864 -405 0
864 405 0
-865 -408 0
865 408 0
-866 -411 0
866 411 0
-867 -414 0
867 414 0
-868 -417 0
868 417 0
-869 -420 0
869 420 0
-870 -423 0
870 423 0
-871 -426 0
871 426 0
-872 -429 0
872 429 0
-873 -432 0
873 432 0
-874 -435 0
874 435 0
-875 -438 0
875 438 0
-876 -441 0
876 441 0
-877 -444 0
877 444 0
-878 -447 0
878 447 0
-879 -450 0
879 450 0
-880 -453 0
880 453 0
-881 -456 0
881 456 0
-882 -459 0
882 459 0
-883 -462 0
883 462 0
-884 -465 0
884 465 0
-885 -468 0
885 468 0
-886 -471 0
886 471 0
-887 -474 0
887 474 0
-888 -477 0
888 477 0
-889 -480 0
889 480 0
-890 -483 0
890 483 0
-891 -486 0
891 486 0
-892 -489 0
892 489 0
-893 -492 0
893 492 0
-894 -495 0
894 495 0
-895 -498 0
895 498 0
-896 -501 0
896 501 0
-897 -503 0
897 503 0
-898 -506 0
898 506 0
-899 -509 0
899 509 0
-900 -512 0
900 512 0
-901 -515 0
901 515 0
-902 -518 0
902 518 0
-903 -521 0
903 521 0
-904 -524 0
904 524 0
-905 -527 0
905 527 0
-906 -530 0
906 530 0
-907 -533 0
907 533 0
-908 -536 0
908 536 0
-909 -539 0
909 539 0
-910 -542 0
910 542 0
-911 -545 0
911 545 0
-912 -548 0
912 548 0
-913 -551 0
913 551 0
-914 -554 0
914 554 0
-915 -557 0
915 557 0
-916 -560 0
916 560 0
-917 -563 0
917 563 0
-918 -566 0
918 566 0
-919 -569 0
919 569 0
-920 -572 0
920 572 0
-921 -575 0
921 575 0
-922 -578 0
922 578 0
-923 -580 0
923 580 0
-924 -583 0
924 583 0
-925 -586 0
925 586 0
-926 -589 0
926 589 0
-927 -592 0
927 592 0
-928 -595 0
928 595 0
-929 -598 0
929 598 0
-930 -601 0
930 601 0
-931 -604 0
931 604 0
-932 -607 0
932 607 0
-933 -610 0
933 610 0
-934 -613 0
934 613 0
-935 -616 0
935 616 0
-936 -618 0
936 618 0
-937 -621 0
937 621 0
-938 -624 0
938 624 0
-939 -627 0
939 627 0
-940 -630 0
940 630 0
-941 -633 0
941 633 0
-942 -636 0
942 636 0
-943 -639 0
943 639 0
-944 -642 0
944 642 0
-945 -645 0
945 645 0
-946 -648 0
946 648 0
-947 -650 0
947 650 0
-948 -652 0
948 652 0
-949 -655 0
949 655 0
-950 -658 0
950 658 0
-951 -661 0
951 661 0
-952 -664 0
952 664 0
-953 -667 0
953 667 0
-954 -670 0
954 670 0
-955 -672 0
955 672 0
-956 -675 0
956 675 0
-957 -678 0
957 678 0
-958 -681 0
958 681 0
-959 -684 0
959 684 0
-960 -687 0
960 687 0
-961 -690 0
961 690 0
-962 -693 0
962 693 0
694 0
